n_res = 4;
rc = [ 10, 14, 12, 10 ];
n_tasks = 30;
d = [ 5, 6, 2, 1, 3, 7, 4, 7, 10, 1, 5, 10, 10, 8, 2, 3, 10, 2, 10, 10, 6, 10, 7, 10, 4, 2, 6, 4, 5, 1 ];
rr = [| 0, 6, 6, 5, 7, 0, 0, 8, 7, 1, 0, 0, 0, 0, 0, 6, 0, 4, 0, 2, 1, 0, 6, 7, 3, 0, 0, 4, 6, 8
      | 1, 0, 3, 0, 0, 5, 10, 10, 5, 0, 1, 9, 0, 0, 0, 0, 6, 6, 8, 0, 4, 0, 0, 0, 0, 0, 0, 0, 3, 2
      | 10, 3, 8, 2, 0, 5, 0, 0, 6, 7, 0, 0, 0, 5, 8, 10, 2, 2, 0, 0, 4, 2, 9, 6, 0, 3, 0, 7, 0, 3
      | 0, 0, 6, 0, 0, 3, 0, 0, 0, 0, 3, 0, 8, 2, 0, 0, 0, 9, 2, 0, 0, 1, 0, 0, 0, 1, 2, 4, 0, 0 |];
suc = [ { 4, 7, 12 },
       { 11, 16, 19 },
       { 4, 5, 12 },
       { 8, 13, 14 },
       { 6, 16, 22 },
       { 7, 14, 19 },
       { 10, 20 },
       { 9, 19, 22 },
       { 11, 16, 17 },
       { 11, 13 },
       { 15, 26 },
       { 22, 24, 26 },
       { 17, 23, 25 },
       { 17, 20, 24 },
       { 18 },
       { 18, 28 },
       { 26 },
       { 21, 23, 27 },
       { 20, 21, 27 },
       { 23, 25 },
       { 24, 25 },
       { 28, 29, 30 },
       { 29 },
       { 30 },
       { 30 },
       { 27, 28 },
       { 29 },
       {  },
       {  },
       {  } ];
